Assets/LKHProbs~/skull.3.tsp
NAME : GeneratedProblem
COMMENT : SVGCrosshatch
TYPE : TSP
DIMENSION : 36
EDGE_WEIGHT_TYPE : EUC_2D
NODE_COORD_SECTION
1 9200 4600
2 9200 4700
3 9300 4600
4 9300 4700
5 9300 4800
6 9400 4600
7 9400 4700
8 9400 4800
9 9400 4900
10 9400 5000
11 9400 5100
12 9400 5200
13 9400 5300
14 9400 5400
15 9400 5500
16 9400 5600
17 9400 5700
18 9400 5800
19 9500 4600
20 9500 4700
21 9500 4800
22 9500 4900
23 9500 5000
24 9500 5100
25 9500 5200
26 9500 5300
27 9500 5400
28 9500 5500
29 9500 5600
30 9500 5700
31 9600 5300
32 9600 5400
33 9600 5500
34 9700 5300
35 10000 4600
36 10000 4700
EOF
